NAME : LC2_6_9
TYPE : PDPTW
DIMENSION : 150
EDGE_WEIGHT_TYPE : EXACT_2D
NODE_COORD_SECTION
1 1 0
2 150 0
3 0 0
4 -20 2001
5 0 2
6 1688 2415
7 3 122
8 3623 90
9 165 85
10 90 135
11 198 20
12 0 315
13 30 634
14 82 7
15 912 1742
16 8 58
17 2304 90
18 243 35
19 90 233
20 45 20
21 0 290
22 -10 1258
23 0 12
24 762 1748
25 13 279
26 1283 90
27 97 40
28 90 0
29 52 20
30 0 334
31 -10 2714
32 0 17
33 1368 2481
34 18 64
35 961 90
36 141 231
37 90 0
38 211 -20
39 141 0
40 20 384
41 86 22
42 2990 3550
43 23 66
44 3622 0
45 83 219
46 90 0
47 210 20
48 0 28
49 20 127
50 455 27
51 591 1780
52 28 165
53 3686 90
54 117 262
55 0 0
56 49 20
57 0 73
58 -10 427
59 0 32
60 1676 3173
61 33 182
62 2995 90
63 239 181
64 90 0
65 114 -20
66 280 0
67 20 1512
68 587 37
69 81 317
70 38 142
71 1589 90
72 102 51
73 90 0
74 62 10
75 0 64
76 20 2826
77 89 42
78 1596 2312
79 43 244
80 2759 90
81 125 23
82 90 0
83 23 -20
84 348 0
85 20 113
86 480 47
87 1504 2243
88 48 262
89 2199 90
90 75 28
91 90 0
92 63 -10
93 278 0
94 20 321
95 71 52
96 39 1452
97 53 179
98 3131 90
99 154 257
100 90 0
101 38 -20
102 128 0
103 20 290
104 313 57
105 3102 3355
106 58 28
107 433 90
108 25 150
109 90 433
110 32 -10
111 175 0
112 -20 753
113 0 62
114 1879 2773
115 63 186
116 841 90
117 252 60
118 90 40
119 10 -20
120 406 0
121 -40 2679
122 0 67
123 125 1351
124 68 101
125 2608 90
126 103 35
127 90 361
128 244 20
129 0 288
130 -20 1803
131 0 72
132 2393 3268
133 73 74
134 2471 90
135 222 160
136 90 0
137 163 -20
138 396 0
139 -40 2153
140 0 77
141 2039 3259
142 78 17
143 860 90
144 203 200
145 90 0
146 137 10
147 0 119
148 10 528
149 557 82
150 1010 1744
PICKUP_AND_DELIVERY_SECTION
1 0 0 0 0 0 0
2 0 0 0 0 3815 0
3 0 0 0 0 0 248
4 0 0 0 0 90 90
5 0 0 0 0 221 221
6 0 0 0 0 329 329
7 0 0 0 0 -40 -40
8 0 0 0 0 0 0
9 0 0 0 0 2808 2808
10 0 0 0 0 5 0
11 0 0 0 0 1055 1055
12 0 0 0 0 55 55
13 0 0 0 0 90 90
14 0 0 0 0 70 70
15 0 0 0 0 0 0
16 0 0 0 0 -10 -10
17 0 0 0 0 0 0
18 0 0 0 0 2285 2285
19 0 0 0 0 10 0
20 0 0 0 0 960 960
21 0 0 0 0 30 30
22 0 0 0 0 90 90
23 0 0 0 0 27 27
24 0 0 0 0 461 461
25 0 0 0 0 10 10
26 0 0 0 0 99 0
27 0 0 0 0 406 406
28 0 0 0 0 15 15
29 0 0 0 0 1882 1882
30 0 0 0 0 226 226
31 0 0 0 0 90 90
32 0 0 0 0 21 21
33 0 0 0 0 0 0
34 0 0 0 0 20 20
35 0 0 0 0 234 0
36 0 0 0 0 81 81
37 0 0 0 0 20 20
38 0 0 0 0 3396 3396
39 0 0 0 0 50 50
40 0 0 0 0 90 90
41 0 0 0 0 178 178
42 0 0 0 0 0 0
43 0 0 0 0 10 10
44 0 0 0 0 607 0
45 0 0 0 0 96 96
46 0 0 0 0 25 25
47 0 0 0 0 583 583
48 0 0 0 0 173 173
49 0 0 0 0 90 90
50 0 0 0 0 180 180
51 0 0 0 0 0 0
52 0 0 0 0 -20 -20
53 0 0 0 0 0 0
54 0 0 0 0 1774 1774
55 0 0 0 0 30 30
56 0 0 0 0 1881 1881
57 0 0 0 0 176 176
58 0 0 0 0 90 90
59 0 0 0 0 46 46
60 0 0 0 0 125 125
61 0 0 0 0 -20 -20
62 0 0 0 0 0 0
63 0 0 0 0 94 94
64 0 0 0 0 35 35
65 0 0 0 0 979 979
66 0 0 0 0 34 34
67 0 0 0 0 90 90
68 0 0 0 0 231 231
69 0 0 0 0 0 0
70 0 0 0 0 20 20
71 0 0 0 0 300 0
72 0 0 0 0 110 110
73 0 0 0 0 40 40
74 0 0 0 0 685 685
75 0 0 0 0 261 261
76 0 0 0 0 90 90
77 0 0 0 0 146 146
78 0 0 0 0 143 143
79 0 0 0 0 -30 -30
80 0 0 0 0 0 0
81 0 0 0 0 1993 1993
82 0 0 0 0 45 45
83 0 0 0 0 3598 3598
84 0 0 0 0 92 92
85 0 0 0 0 90 90
86 0 0 0 0 272 272
87 0 0 0 0 0 0
88 0 0 0 0 -20 -20
89 0 0 0 0 0 0
90 0 0 0 0 680 680
91 0 0 0 0 50 50
92 0 0 0 0 2982 2982
93 0 0 0 0 224 224
94 0 0 0 0 90 90
95 0 0 0 0 116 116
96 0 0 0 0 559 559
97 0 0 0 0 -30 -30
98 0 0 0 0 0 0
99 0 0 0 0 975 975
100 0 0 0 0 55 55
101 0 0 0 0 2929 2929
102 0 0 0 0 83 83
103 0 0 0 0 90 90
104 0 0 0 0 201 201
105 0 0 0 0 77 77
106 0 0 0 0 -20 -20
107 0 0 0 0 0 0
108 0 0 0 0 1534 1534
109 0 0 0 0 60 0
110 0 0 0 0 2637 2637
111 0 0 0 0 67 67
112 0 0 0 0 90 90
113 0 0 0 0 50 50
114 0 0 0 0 0 0
115 0 0 0 0 10 10
116 0 0 0 0 252 0
117 0 0 0 0 213 213
118 0 0 0 0 65 0
119 0 0 0 0 2668 2668
120 0 0 0 0 239 239
121 0 0 0 0 90 90
122 0 0 0 0 102 102
123 0 0 0 0 0 0
124 0 0 0 0 -10 -10
125 0 0 0 0 0 0
126 0 0 0 0 2164 2164
127 0 0 0 0 70 0
128 0 0 0 0 1553 1553
129 0 0 0 0 231 231
130 0 0 0 0 90 90
131 0 0 0 0 114 114
132 0 0 0 0 503 503
133 0 0 0 0 -20 -20
134 0 0 0 0 0 0
135 0 0 0 0 234 234
136 0 0 0 0 75 75
137 0 0 0 0 3613 3613
138 0 0 0 0 125 125
139 0 0 0 0 90 90
140 0 0 0 0 203 203
141 0 0 0 0 0 0
142 0 0 0 0 20 20
143 0 0 0 0 224 0
144 0 0 0 0 178 178
145 0 0 0 0 80 80
146 0 0 0 0 1173 1173
147 0 0 0 0 263 263
148 0 0 0 0 90 90
149 0 0 0 0 137 137
150 0 0 0 0 6 6
DEPOT_SECTION
1 
-1
EOF
